CPXPARAM_TimeLimit                               7200
CPXPARAM_Read_DataCheck                          1
Parallel mode: deterministic, using up to 8 threads for concurrent optimization.
Tried aggregator 1 time.
No LP presolve or aggregator reductions.
Presolve time = 0.00 sec. (1.32 ticks)

Iteration log . . .
Iteration:     1   Dual objective     =           963.000000
Iteration:    96   Dual objective     =           963.000000
Perturbation started.
Iteration:   101   Dual objective     =           963.000000
Iteration:   207   Dual objective     =           963.013426
Iteration:   376   Dual objective     =           963.013527
Iteration:   545   Dual objective     =           963.013530
Iteration:   722   Dual objective     =           963.013531
Iteration:   904   Dual objective     =           963.013532
Removing perturbation.

Dual simplex solved model.

